problems/factor/f13.1.cnf
c by Paul Purdom and Amr Sabry
c
c Circuit for product = 13 [True,True,False,True]
c Variables for output [msb,...,lsb]: [19,20,17,13,6]
c Variables for first input [msb,...,lsb]: [3,2,1]
c Variables for second input [msb,...,lsb]: [5,4]
c
c
p cnf 20 65
1 4 -6 0
1 -4 -6 0
-1 4 -6 0
-1 -4 6 0
2 4 -7 0
2 -4 -7 0
-2 4 -7 0
-2 -4 7 0
3 4 -8 0
3 -4 -8 0
-3 4 -8 0
-3 -4 8 0
1 5 -9 0
1 -5 -9 0
-1 5 -9 0
-1 -5 9 0
2 5 -10 0
2 -5 -10 0
-2 5 -10 0
-2 -5 10 0
3 5 -11 0
3 -5 -11 0
-3 5 -11 0
-3 -5 11 0
7 9 -12 0
7 -9 -12 0
-7 9 -12 0
-7 -9 12 0
7 9 -13 0
7 -9 13 0
-7 9 13 0
-7 -9 -13 0
8 10 -14 0
8 -10 -14 0
-8 10 -14 0
-8 -10 14 0
8 10 -15 0
8 -10 15 0
-8 10 15 0
-8 -10 -15 0
12 15 -16 0
12 -15 -16 0
-12 15 -16 0
-12 -15 16 0
12 15 -17 0
12 -15 17 0
-12 15 17 0
-12 -15 -17 0
14 16 -18 0
14 -16 18 0
-14 16 18 0
-14 -16 -18 0
18 11 -19 0
18 -11 -19 0
-18 11 -19 0
-18 -11 19 0
18 11 -20 0
18 -11 20 0
-18 11 20 0
-18 -11 -20 0
6 0
-13 0
17 0
20 0
-19 0


