performanceLessSmall/f13.1
#PROBLEM: f13.1 & longest chain length: 10 & average chain length: 2.7188 & median chain length: 3.5 & varNum: 20 & clauseNum: 65 & chains: 32 & timeout: 30s 
#original chain with index 57: [35, 17, 79, 70, 82, 37, 71, 25, 89, 42] 
#trying: [79, 82, 17, 70, 37, 35, 42, 89, 71, 25]
0	Timeout 
#trying: [17, 71, 35, 42, 89, 70, 37, 82, 79, 25]
1	Timeout 
#trying: [17, 82, 37, 25, 70, 42, 71, 89, 35, 79]
2	Timeout 
#trying: [79, 42, 25, 35, 82, 89, 37, 71, 70, 17]
3	Timeout 
#trying: [70, 35, 79, 17, 42, 37, 71, 82, 25, 89]
4	Timeout 
#trying: [82, 79, 70, 42, 37, 17, 89, 71, 25, 35]
5	Timeout 
#trying: [71, 42, 17, 82, 35, 79, 70, 89, 25, 37]
6	Timeout 
#trying: [70, 37, 17, 25, 82, 42, 35, 89, 71, 79]
7	